3 10
97 106 99 
0 102 94 13 12 24 31 82 49 31 59 31 26 2
1 45 54 92 89 39 31 43 19 83 72 68 48 3
2 65 64 29 35 4 5 42 75 99 34 70 49 1
3 97 97 43 52 92 98 74 12 97 83 88 51 3
4 18 14 64 65 10 15 58 73 83 84 69 37 3
5 27 32 74 78 29 33 38 66 25 64 32 99 3
6 23 23 52 50 73 76 65 44 32 20 47 66 2
7 16 22 67 60 107 99 30 41 34 73 23 45 2
8 17 11 73 78 37 44 30 68 94 7 51 71 1
9 72 64 15 11 58 65 98 29 37 3 27 33 2
